# 85853
param n := 30;
param s := 1;
set E :=  (0,18) (1,6) (1,19) (1,24) (2,23) (3,12) (3,20) (3,29) (4,18) (4,26) (5,9) (5,23) (5,28) (6,21) (7,28) (7,29) (8,12) (9,16) (10,12) (10,24) (10,27) (11,23) (13,29) (14,29) (15,23) (15,26) (17,20) (22,24) (24,26) (25,28);
